(set-option :produce-models true)
(set-logic QF_UF)
(declare-fun p13() Bool)
(declare-fun p4() Bool)
(declare-fun p10() Bool)
(declare-fun p2() Bool)
(declare-fun p8() Bool)
(declare-fun p9() Bool)
(declare-fun p11() Bool)
(declare-fun p12() Bool)
(declare-fun p7() Bool)
(declare-fun p6() Bool)
(declare-fun p3() Bool)
(declare-fun p1() Bool)
(declare-fun p0() Bool)
(declare-fun p5() Bool)
(declare-fun p14() Bool)
(assert
(and (or p13 p4 p10) (or p2 (not p8) (not p8)) (or (not p9) p8 p11) (or p11 (not p12) p7) (or (not p6) (not p2) (not p3)) (or p6 (not p6) p7) (or (not p8) (not p1) (not p2)) (or (not p3) (not p0) (not p10)) (or (not p5) (not p3) (not p5)) (or (not p4) (not p0) p9) (or p11 p6 (not p7)) (or p10 p12 (not p5)) (or (not p12) (not p14) (not p4)) (or p5 p1 p12) (or (not p7) (not p0) (not p4)) (or p13 (not p14) p5) (or (not p2) p3 (not p5)) (or (not p8) (not p7) p0) (or (not p11) (not p4) p12) (or p12 (not p6) (not p2)) (or p5 (not p5) (not p11)) (or p13 p5 (not p13)) (or p14 (not p13) (not p10)) (or (not p10) (not p0) (not p9)) (or p6 (not p11) p11) (or (not p9) (not p7) p8) (or (not p14) p0 p4) (or (not p3) p14 (not p1)) (or p6 p8 p10) (or (not p2) (not p9) p7) (or p3 (not p4) (not p5)) (or (not p11) (not p10) (not p10)) (or p14 p6 p4) (or (not p13) (not p9) p10) (or (not p13) p8 (not p8)) (or p6 (not p0) (not p10)) (or (not p7) p14 (not p1)) (or p0 p0 p4) (or p10 (not p12) (not p1)) (or p1 p9 p10) (or (not p4) p13 (not p1)) (or (not p13) p12 p11) (or p4 p10 p12) (or p2 p3 (not p6)) (or p0 p0 (not p7)) (or p8 p1 p11) (or p12 (not p7) (not p0)) (or p7 (not p14) p14) (or (not p13) (not p1) p5) (or p6 p5 (not p11)) (or (not p9) p4 p6) (or p2 (not p2) p11) (or p14 (not p6) (not p9)) (or (not p12) (not p2) p4) (or p4 p12 (not p6)) (or p12 p1 p3) (or p14 (not p14) p12) (or p0 (not p7) p8) (or (not p9) (not p2) p11) (or (not p6) (not p2) (not p13)) (or (not p13) (not p13) (not p14)) (or (not p1) (not p14) p10) (or p11 (not p11) p10) (or (not p9) (not p8) p1) (or p2 p7 p7) (or (not p9) p7 p1) (or (not p8) (not p1) (not p12)) (or p3 p13 (not p2)) (or p3 p10 p2))
)
(check-sat)
(get-model)
